problem_generation/data/GISP/train/er_n=60_m=1045_p=0.60_SET2_setparam=100.00_alpha=0.50_809.lp
maximize
OBJ:100x0 + 100x1 + 100x2 + 100x3 + 100x4 + 100x5 + 100x6 + 100x7 + 100x8 + 100x9 + 100x10 + 100x11 + 100x12 + 100x13 + 100x14 + 100x15 + 100x16 + 100x17 + 100x18 + 100x19 + 100x20 + 100x21 + 100x22 + 100x23 + 100x24 + 100x25 + 100x26 + 100x27 + 100x28 + 100x29 + 100x30 + 100x31 + 100x32 + 100x33 + 100x34 + 100x35 + 100x36 + 100x37 + 100x38 + 100x39 + 100x40 + 100x41 + 100x42 + 100x43 + 100x44 + 100x45 + 100x46 + 100x47 + 100x48 + 100x49 + 100x50 + 100x51 + 100x52 + 100x53 + 100x54 + 100x55 + 100x56 + 100x57 + 100x58 + 100x59 - y26_30 - y18_26 - y15_39 - y28_58 - y29_41 - y21_37 - y6_48 - y0_23 - y10_27 - y2_32 - y10_45 - y44_47 - y10_54 - y44_56 - y3_15 - y22_28 - y17_53 - y18_30 - y48_58 - y21_41 - y40_54 - y25_29 - y25_47 - y2_54 - y14_19 - y32_55 - y16_56 - y55_56 - y28_39 - y9_53 - y21_27 - y6_38 - y29_40 - y48_53 - y40_58 - y33_37 - y32_41 - y17_25 - y9_30 - y9_39 - y5_50 - y6_15 - y28_52 - y9_48 - y5_59 - y21_22 - y21_31 - y29_44 - y6_51 - y2_8 - y54_55 - y25_28 - y10_39 - y2_35 - y24_32 - y32_45 - y51_58 - y13_41 - y14_18 - y16_37 - y35_50 - y17_20 - y36_42 - y5_36 - y28_38 - y36_51 - y5_54 - y6_19 - y6_28 - y6_46 - y2_3 - y31_48 - y10_25 - y2_30 - y13_27 - y4_58 - y35_36 - y1_43 - y16_41 - y1_52 - y24_54 - y35_54 - y16_50 - y17_24 - y17_33 - y5_49 - y6_23 - y11_56 - y10_11 - y39_47 - y2_7 - y31_43 - y39_56 - y12_57 - y43_44 - y1_47 - y35_49 - y5_8 - y16_54 - y5_17 - y5_26 - y6_9 - y50_52 - y30_46 - y19_55 - y11_51 - y39_42 - y12_25 - y31_47 - y4_30 - y12_52 - y1_15 - y23_52 - y4_48 - y4_57 - y16_22 - y1_42 - y38_46 - y57_59 - y26_53 - y5_39 - y18_58 - y27_36 - y19_32 - y19_50 - y42_52 - y11_46 - y8_59 - y0_55 - y39_46 - y23_29 - y20_42 - y31_51 - y12_47 - y23_56 - y4_52 - y34_53 - y13_30 - y1_37 - y37_58 - y38_41 - y26_57 - y7_53 - y8_27 - y11_32 - y30_45 - y11_41 - y8_54 - y19_54 - y0_50 - y11_59 - y12_24 - y23_24 - y31_37 - y12_33 - y23_33 - y4_29 - y4_38 - y4_47 - y16_21 - y34_57 - y45_57 - y3_51 - y16_30 - y5_11 - y46_49 - y15_43 - y26_43 - y18_39 - y15_52 - y18_48 - y18_57 - y19_22 - y8_31 - y19_31 - y27_44 - y11_27 - y19_49 - y41_46 - y20_23 - y0_54 - y41_55 - y12_28 - y4_24 - y12_37 - y1_9 - y22_41 - y37_48 - y14_55 - y5_6 - y7_34 - y18_34 - y38_49 - y7_52 - y18_52 - y0_13 - y11_13 - y19_26 - y27_39 - y29_58 - y30_35 - y0_31 - y11_40 - y11_49 - y12_23 - y52_59 - y22_54 - y14_59 - y7_29 - y18_29 - y15_42 - y26_42 - y7_38 - y0_17 - y11_17 - y19_30 - y11_26 - y21_58 - y11_35 - y33_41 - y52_54 - y25_37 - y4_14 - y44_50 - y3_36 - y3_45 - y37_56 - y18_24 - y26_37 - y18_42 - y0_12 - y11_12 - y21_53 - y10_34 - y41_49 - y4_9 - y33_45 - y41_58 - y44_45 - y44_54 - y3_22 - y22_35 - y22_44 - y47_55 - y7_28 - y9_56 - y29_34 - y11_16 - y40_52 - y25_27 - y33_40 - y2_34 - y10_47 - y2_43 - y25_54 - y22_30 - y14_26 - y14_44 - y15_18 - y47_50 - y7_23 - y17_55 - y28_55 - y0_2 - y21_34 - y6_45 - y40_56 - y10_15 - y2_20 - y54_58 - y33_35 - y25_31 - y10_42 - y2_47 - y32_48 - y43_48 - y14_21 - y32_57 - y24_53 - y35_53 - y3_30 - y14_30 - y17_41 - y28_41 - y9_46 - y21_29 - y6_40 - y21_38 - y40_51 - y6_58 - y2_6 - y39_55 - y2_24 - y25_26 - y25_35 - y3_7 - y51_56 - y24_39 - y3_16 - y32_52 - y43_52 - y3_25 - y24_57 - y17_27 - y36_40 - y47_49 - y17_45 - y6_8 - y28_45 - y6_17 - y9_50 - y39_50 - y39_59 - y2_19 - y20_55 - y10_32 - y13_25 - y24_34 - y32_47 - y43_47 - y32_56 - y16_39 - y35_52 - y16_48 - y17_31 - y9_27 - y17_40 - y9_45 - y6_21 - y9_54 - y39_45 - y10_18 - y39_54 - y23_46 - y23_55 - y32_51 - y16_34 - y1_45 - y16_43 - y24_56 - y36_39 - y9_22 - y49_58 - y9_40 - y5_51 - y42_46 - y21_23 - y50_59 - y19_53 - y42_55 - y0_49 - y20_27 - y11_58 - y10_13 - y23_41 - y54_56 - y12_50 - y16_20 - y32_46 - y43_46 - y1_40 - y24_51 - y38_44 - y9_17 - y38_53 - y17_30 - y49_53 - y9_26 - y9_35 - y27_34 - y6_11 - y6_20 - y30_39 - y42_50 - y39_44 - y23_27 - y12_36 - y1_8 - y23_54 - y13_19 - y13_28 - y24_28 - y1_44 - y38_39 - y7_51 - y27_29 - y19_34 - y0_30 - y8_43 - y30_43 - y27_56 - y8_52 - y30_52 - y0_48 - y20_26 - y0_57 - y20_35 - y1_12 - y53_59 - y1_39 - y14_58 - y5_9 - y46_47 - y26_41 - y26_50 - y49_52 - y18_46 - y7_55 - y18_55 - y8_29 - y0_25 - y30_38 - y30_56 - y20_21 - y11_52 - y52_53 - y20_30 - y12_26 - y23_26 - y44_58 - y23_35 - y1_7 - y37_46 - y16_23 - y34_59 - y45_59 - y7_32 - y18_32 - y7_41 - y26_54 - y8_15 - y11_20 - y19_33 - y30_33 - y11_29 - y8_42 - y41_48 - y12_21 - y33_53 - y44_53 - y23_30 - y25_49 - y1_2 - y14_39 - y22_52 - y37_50 - y3_57 - y37_59 - y18_27 - y26_40 - y7_36 - y8_10 - y15_58 - y8_19 - y48_55 - y11_15 - y8_28 - y0_24 - y11_24 - y8_37 - y19_37 - y11_33 - y44_48 - y10_55 - y3_34 - y3_43 - y56_58 - y3_52 - y14_52 - y37_54 - y7_22 - y18_22 - y15_35 - y26_35 - y7_31 - y18_49 - y8_14 - y29_46 - y8_23 - y0_19 - y6_53 - y30_32 - y0_28 - y25_30 - y4_7 - y25_39 - y33_52 - y2_46 - y3_20 - y34_35 - y3_29 - y22_42 - y3_38 - y14_38 - y37_40 - y14_47 - y14_56
 Subject to
C1: x0+x1 <=1 
C2: x0+x2-y0_2 <=1 
C3: x0+x5 <=1 
C4: x0+x8 <=1 
C5: x0+x10 <=1 
C6: x0+x11 <=1 
C7: x0+x12-y0_12 <=1 
C8: x0+x13-y0_13 <=1 
C9: x0+x15 <=1 
C10: x0+x17-y0_17 <=1 
C11: x0+x19-y0_19 <=1 
C12: x0+x20 <=1 
C13: x0+x22 <=1 
C14: x0+x23-y0_23 <=1 
C15: x0+x24-y0_24 <=1 
C16: x0+x25-y0_25 <=1 
C17: x0+x26 <=1 
C18: x0+x27 <=1 
C19: x0+x28-y0_28 <=1 
C20: x0+x29 <=1 
C21: x0+x30-y0_30 <=1 
C22: x0+x31-y0_31 <=1 
C23: x0+x33 <=1 
C24: x0+x34 <=1 
C25: x0+x36 <=1 
C26: x0+x37 <=1 
C27: x0+x38 <=1 
C28: x0+x39 <=1 
C29: x0+x41 <=1 
C30: x0+x42 <=1 
C31: x0+x44 <=1 
C32: x0+x45 <=1 
C33: x0+x48-y0_48 <=1 
C34: x0+x49-y0_49 <=1 
C35: x0+x50-y0_50 <=1 
C36: x0+x51 <=1 
C37: x0+x53 <=1 
C38: x0+x54-y0_54 <=1 
C39: x0+x55-y0_55 <=1 
C40: x0+x57-y0_57 <=1 
C41: x0+x58 <=1 
C42: x1+x2-y1_2 <=1 
C43: x1+x4 <=1 
C44: x1+x6 <=1 
C45: x1+x7-y1_7 <=1 
C46: x1+x8-y1_8 <=1 
C47: x1+x9-y1_9 <=1 
C48: x1+x12-y1_12 <=1 
C49: x1+x13 <=1 
C50: x1+x15-y1_15 <=1 
C51: x1+x16 <=1 
C52: x1+x19 <=1 
C53: x1+x23 <=1 
C54: x1+x24 <=1 
C55: x1+x26 <=1 
C56: x1+x27 <=1 
C57: x1+x28 <=1 
C58: x1+x30 <=1 
C59: x1+x31 <=1 
C60: x1+x34 <=1 
C61: x1+x37-y1_37 <=1 
C62: x1+x38 <=1 
C63: x1+x39-y1_39 <=1 
C64: x1+x40-y1_40 <=1 
C65: x1+x41 <=1 
C66: x1+x42-y1_42 <=1 
C67: x1+x43-y1_43 <=1 
C68: x1+x44-y1_44 <=1 
C69: x1+x45-y1_45 <=1 
C70: x1+x47-y1_47 <=1 
C71: x1+x49 <=1 
C72: x1+x51 <=1 
C73: x1+x52-y1_52 <=1 
C74: x1+x54 <=1 
C75: x1+x57 <=1 
C76: x2+x3-y2_3 <=1 
C77: x2+x6-y2_6 <=1 
C78: x2+x7-y2_7 <=1 
C79: x2+x8-y2_8 <=1 
C80: x2+x9 <=1 
C81: x2+x12 <=1 
C82: x2+x14 <=1 
C83: x2+x15 <=1 
C84: x2+x16 <=1 
C85: x2+x17 <=1 
C86: x2+x19-y2_19 <=1 
C87: x2+x20-y2_20 <=1 
C88: x2+x22 <=1 
C89: x2+x24-y2_24 <=1 
C90: x2+x26 <=1 
C91: x2+x27 <=1 
C92: x2+x29 <=1 
C93: x2+x30-y2_30 <=1 
C94: x2+x32-y2_32 <=1 
C95: x2+x34-y2_34 <=1 
C96: x2+x35-y2_35 <=1 
C97: x2+x36 <=1 
C98: x2+x38 <=1 
C99: x2+x42 <=1 
C100: x2+x43-y2_43 <=1 
C101: x2+x46-y2_46 <=1 
C102: x2+x47-y2_47 <=1 
C103: x2+x48 <=1 
C104: x2+x52 <=1 
C105: x2+x54-y2_54 <=1 
C106: x2+x56 <=1 
C107: x2+x59 <=1 
C108: x3+x7-y3_7 <=1 
C109: x3+x9 <=1 
C110: x3+x11 <=1 
C111: x3+x12 <=1 
C112: x3+x15-y3_15 <=1 
C113: x3+x16-y3_16 <=1 
C114: x3+x19 <=1 
C115: x3+x20-y3_20 <=1 
C116: x3+x21 <=1 
C117: x3+x22-y3_22 <=1 
C118: x3+x23 <=1 
C119: x3+x25-y3_25 <=1 
C120: x3+x26 <=1 
C121: x3+x29-y3_29 <=1 
C122: x3+x30-y3_30 <=1 
C123: x3+x34-y3_34 <=1 
C124: x3+x35 <=1 
C125: x3+x36-y3_36 <=1 
C126: x3+x37 <=1 
C127: x3+x38-y3_38 <=1 
C128: x3+x39 <=1 
C129: x3+x40 <=1 
C130: x3+x43-y3_43 <=1 
C131: x3+x45-y3_45 <=1 
C132: x3+x46 <=1 
C133: x3+x47 <=1 
C134: x3+x48 <=1 
C135: x3+x50 <=1 
C136: x3+x51-y3_51 <=1 
C137: x3+x52-y3_52 <=1 
C138: x3+x57-y3_57 <=1 
C139: x4+x7-y4_7 <=1 
C140: x4+x9-y4_9 <=1 
C141: x4+x10 <=1 
C142: x4+x11 <=1 
C143: x4+x14-y4_14 <=1 
C144: x4+x24-y4_24 <=1 
C145: x4+x29-y4_29 <=1 
C146: x4+x30-y4_30 <=1 
C147: x4+x31 <=1 
C148: x4+x33 <=1 
C149: x4+x34 <=1 
C150: x4+x35 <=1 
C151: x4+x37 <=1 
C152: x4+x38-y4_38 <=1 
C153: x4+x41 <=1 
C154: x4+x42 <=1 
C155: x4+x43 <=1 
C156: x4+x45 <=1 
C157: x4+x46 <=1 
C158: x4+x47-y4_47 <=1 
C159: x4+x48-y4_48 <=1 
C160: x4+x49 <=1 
C161: x4+x51 <=1 
C162: x4+x52-y4_52 <=1 
C163: x4+x54 <=1 
C164: x4+x57-y4_57 <=1 
C165: x4+x58-y4_58 <=1 
C166: x4+x59 <=1 
C167: x5+x6-y5_6 <=1 
C168: x5+x7 <=1 
C169: x5+x8-y5_8 <=1 
C170: x5+x9-y5_9 <=1 
C171: x5+x10 <=1 
C172: x5+x11-y5_11 <=1 
C173: x5+x13 <=1 
C174: x5+x14 <=1 
C175: x5+x17-y5_17 <=1 
C176: x5+x20 <=1 
C177: x5+x23 <=1 
C178: x5+x25 <=1 
C179: x5+x26-y5_26 <=1 
C180: x5+x27 <=1 
C181: x5+x33 <=1 
C182: x5+x36-y5_36 <=1 
C183: x5+x39-y5_39 <=1 
C184: x5+x44 <=1 
C185: x5+x47 <=1 
C186: x5+x48 <=1 
C187: x5+x49-y5_49 <=1 
C188: x5+x50-y5_50 <=1 
C189: x5+x51-y5_51 <=1 
C190: x5+x52 <=1 
C191: x5+x54-y5_54 <=1 
C192: x5+x55 <=1 
C193: x5+x59-y5_59 <=1 
C194: x6+x8-y6_8 <=1 
C195: x6+x9-y6_9 <=1 
C196: x6+x10 <=1 
C197: x6+x11-y6_11 <=1 
C198: x6+x12 <=1 
C199: x6+x15-y6_15 <=1 
C200: x6+x16 <=1 
C201: x6+x17-y6_17 <=1 
C202: x6+x19-y6_19 <=1 
C203: x6+x20-y6_20 <=1 
C204: x6+x21-y6_21 <=1 
C205: x6+x23-y6_23 <=1 
C206: x6+x27 <=1 
C207: x6+x28-y6_28 <=1 
C208: x6+x31 <=1 
C209: x6+x32 <=1 
C210: x6+x35 <=1 
C211: x6+x36 <=1 
C212: x6+x37 <=1 
C213: x6+x38-y6_38 <=1 
C214: x6+x40-y6_40 <=1 
C215: x6+x43 <=1 
C216: x6+x44 <=1 
C217: x6+x45-y6_45 <=1 
C218: x6+x46-y6_46 <=1 
C219: x6+x48-y6_48 <=1 
C220: x6+x49 <=1 
C221: x6+x51-y6_51 <=1 
C222: x6+x52 <=1 
C223: x6+x53-y6_53 <=1 
C224: x6+x54 <=1 
C225: x6+x55 <=1 
C226: x6+x57 <=1 
C227: x6+x58-y6_58 <=1 
C228: x6+x59 <=1 
C229: x7+x8 <=1 
C230: x7+x10 <=1 
C231: x7+x12 <=1 
C232: x7+x15 <=1 
C233: x7+x16 <=1 
C234: x7+x21 <=1 
C235: x7+x22-y7_22 <=1 
C236: x7+x23-y7_23 <=1 
C237: x7+x24 <=1 
C238: x7+x26 <=1 
C239: x7+x27 <=1 
C240: x7+x28-y7_28 <=1 
C241: x7+x29-y7_29 <=1 
C242: x7+x30 <=1 
C243: x7+x31-y7_31 <=1 
C244: x7+x32-y7_32 <=1 
C245: x7+x34-y7_34 <=1 
C246: x7+x35 <=1 
C247: x7+x36-y7_36 <=1 
C248: x7+x37 <=1 
C249: x7+x38-y7_38 <=1 
C250: x7+x41-y7_41 <=1 
C251: x7+x42 <=1 
C252: x7+x43 <=1 
C253: x7+x44 <=1 
C254: x7+x45 <=1 
C255: x7+x48 <=1 
C256: x7+x49 <=1 
C257: x7+x51-y7_51 <=1 
C258: x7+x52-y7_52 <=1 
C259: x7+x53-y7_53 <=1 
C260: x7+x55-y7_55 <=1 
C261: x7+x59 <=1 
C262: x8+x10-y8_10 <=1 
C263: x8+x11 <=1 
C264: x8+x12 <=1 
C265: x8+x14-y8_14 <=1 
C266: x8+x15-y8_15 <=1 
C267: x8+x17 <=1 
C268: x8+x19-y8_19 <=1 
C269: x8+x20 <=1 
C270: x8+x23-y8_23 <=1 
C271: x8+x24 <=1 
C272: x8+x27-y8_27 <=1 
C273: x8+x28-y8_28 <=1 
C274: x8+x29-y8_29 <=1 
C275: x8+x31-y8_31 <=1 
C276: x8+x33 <=1 
C277: x8+x34 <=1 
C278: x8+x37-y8_37 <=1 
C279: x8+x38 <=1 
C280: x8+x40 <=1 
C281: x8+x42-y8_42 <=1 
C282: x8+x43-y8_43 <=1 
C283: x8+x44 <=1 
C284: x8+x50 <=1 
C285: x8+x52-y8_52 <=1 
C286: x8+x53 <=1 
C287: x8+x54-y8_54 <=1 
C288: x8+x57 <=1 
C289: x8+x59-y8_59 <=1 
C290: x9+x12 <=1 
C291: x9+x14 <=1 
C292: x9+x17-y9_17 <=1 
C293: x9+x20 <=1 
C294: x9+x22-y9_22 <=1 
C295: x9+x25 <=1 
C296: x9+x26-y9_26 <=1 
C297: x9+x27-y9_27 <=1 
C298: x9+x30-y9_30 <=1 
C299: x9+x33 <=1 
C300: x9+x35-y9_35 <=1 
C301: x9+x37 <=1 
C302: x9+x39-y9_39 <=1 
C303: x9+x40-y9_40 <=1 
C304: x9+x41 <=1 
C305: x9+x42 <=1 
C306: x9+x44 <=1 
C307: x9+x45-y9_45 <=1 
C308: x9+x46-y9_46 <=1 
C309: x9+x47 <=1 
C310: x9+x48-y9_48 <=1 
C311: x9+x50-y9_50 <=1 
C312: x9+x52 <=1 
C313: x9+x53-y9_53 <=1 
C314: x9+x54-y9_54 <=1 
C315: x9+x56-y9_56 <=1 
C316: x10+x11-y10_11 <=1 
C317: x10+x12 <=1 
C318: x10+x13-y10_13 <=1 
C319: x10+x15-y10_15 <=1 
C320: x10+x17 <=1 
C321: x10+x18-y10_18 <=1 
C322: x10+x20 <=1 
C323: x10+x22 <=1 
C324: x10+x24 <=1 
C325: x10+x25-y10_25 <=1 
C326: x10+x27-y10_27 <=1 
C327: x10+x28 <=1 
C328: x10+x29 <=1 
C329: x10+x32-y10_32 <=1 
C330: x10+x33 <=1 
C331: x10+x34-y10_34 <=1 
C332: x10+x38 <=1 
C333: x10+x39-y10_39 <=1 
C334: x10+x40 <=1 
C335: x10+x41 <=1 
C336: x10+x42-y10_42 <=1 
C337: x10+x43 <=1 
C338: x10+x44 <=1 
C339: x10+x45-y10_45 <=1 
C340: x10+x47-y10_47 <=1 
C341: x10+x48 <=1 
C342: x10+x49 <=1 
C343: x10+x51 <=1 
C344: x10+x54-y10_54 <=1 
C345: x10+x55-y10_55 <=1 
C346: x10+x58 <=1 
C347: x10+x59 <=1 
C348: x11+x12-y11_12 <=1 
C349: x11+x13-y11_13 <=1 
C350: x11+x15-y11_15 <=1 
C351: x11+x16-y11_16 <=1 
C352: x11+x17-y11_17 <=1 
C353: x11+x20-y11_20 <=1 
C354: x11+x24-y11_24 <=1 
C355: x11+x26-y11_26 <=1 
C356: x11+x27-y11_27 <=1 
C357: x11+x29-y11_29 <=1 
C358: x11+x32-y11_32 <=1 
C359: x11+x33-y11_33 <=1 
C360: x11+x34 <=1 
C361: x11+x35-y11_35 <=1 
C362: x11+x36 <=1 
C363: x11+x40-y11_40 <=1 
C364: x11+x41-y11_41 <=1 
C365: x11+x42 <=1 
C366: x11+x43 <=1 
C367: x11+x44 <=1 
C368: x11+x45 <=1 
C369: x11+x46-y11_46 <=1 
C370: x11+x49-y11_49 <=1 
C371: x11+x51-y11_51 <=1 
C372: x11+x52-y11_52 <=1 
C373: x11+x56-y11_56 <=1 
C374: x11+x58-y11_58 <=1 
C375: x11+x59-y11_59 <=1 
C376: x12+x16 <=1 
C377: x12+x17 <=1 
C378: x12+x18 <=1 
C379: x12+x19 <=1 
C380: x12+x20 <=1 
C381: x12+x21-y12_21 <=1 
C382: x12+x22 <=1 
C383: x12+x23-y12_23 <=1 
C384: x12+x24-y12_24 <=1 
C385: x12+x25-y12_25 <=1 
C386: x12+x26-y12_26 <=1 
C387: x12+x28-y12_28 <=1 
C388: x12+x32 <=1 
C389: x12+x33-y12_33 <=1 
C390: x12+x36-y12_36 <=1 
C391: x12+x37-y12_37 <=1 
C392: x12+x39 <=1 
C393: x12+x41 <=1 
C394: x12+x43 <=1 
C395: x12+x44 <=1 
C396: x12+x46 <=1 
C397: x12+x47-y12_47 <=1 
C398: x12+x48 <=1 
C399: x12+x50-y12_50 <=1 
C400: x12+x52-y12_52 <=1 
C401: x12+x57-y12_57 <=1 
C402: x12+x59 <=1 
C403: x13+x14 <=1 
C404: x13+x19-y13_19 <=1 
C405: x13+x20 <=1 
C406: x13+x22 <=1 
C407: x13+x23 <=1 
C408: x13+x25-y13_25 <=1 
C409: x13+x27-y13_27 <=1 
C410: x13+x28-y13_28 <=1 
C411: x13+x30-y13_30 <=1 
C412: x13+x34 <=1 
C413: x13+x35 <=1 
C414: x13+x37 <=1 
C415: x13+x41-y13_41 <=1 
C416: x13+x45 <=1 
C417: x13+x48 <=1 
C418: x13+x50 <=1 
C419: x13+x52 <=1 
C420: x13+x54 <=1 
C421: x14+x15 <=1 
C422: x14+x16 <=1 
C423: x14+x18-y14_18 <=1 
C424: x14+x19-y14_19 <=1 
C425: x14+x21-y14_21 <=1 
C426: x14+x25 <=1 
C427: x14+x26-y14_26 <=1 
C428: x14+x28 <=1 
C429: x14+x29 <=1 
C430: x14+x30-y14_30 <=1 
C431: x14+x31 <=1 
C432: x14+x32 <=1 
C433: x14+x34 <=1 
C434: x14+x35 <=1 
C435: x14+x36 <=1 
C436: x14+x37 <=1 
C437: x14+x38-y14_38 <=1 
C438: x14+x39-y14_39 <=1 
C439: x14+x40 <=1 
C440: x14+x43 <=1 
C441: x14+x44-y14_44 <=1 
C442: x14+x46 <=1 
C443: x14+x47-y14_47 <=1 
C444: x14+x49 <=1 
C445: x14+x50 <=1 
C446: x14+x52-y14_52 <=1 
C447: x14+x54 <=1 
C448: x14+x55-y14_55 <=1 
C449: x14+x56-y14_56 <=1 
C450: x14+x57 <=1 
C451: x14+x58-y14_58 <=1 
C452: x14+x59-y14_59 <=1 
C453: x15+x18-y15_18 <=1 
C454: x15+x23 <=1 
C455: x15+x25 <=1 
C456: x15+x26 <=1 
C457: x15+x27 <=1 
C458: x15+x31 <=1 
C459: x15+x34 <=1 
C460: x15+x35-y15_35 <=1 
C461: x15+x37 <=1 
C462: x15+x38 <=1 
C463: x15+x39-y15_39 <=1 
C464: x15+x41 <=1 
C465: x15+x42-y15_42 <=1 
C466: x15+x43-y15_43 <=1 
C467: x15+x46 <=1 
C468: x15+x52-y15_52 <=1 
C469: x15+x53 <=1 
C470: x15+x55 <=1 
C471: x15+x56 <=1 
C472: x15+x57 <=1 
C473: x15+x58-y15_58 <=1 
C474: x16+x17 <=1 
C475: x16+x19 <=1 
C476: x16+x20-y16_20 <=1 
C477: x16+x21-y16_21 <=1 
C478: x16+x22-y16_22 <=1 
C479: x16+x23-y16_23 <=1 
C480: x16+x26 <=1 
C481: x16+x27 <=1 
C482: x16+x29 <=1 
C483: x16+x30-y16_30 <=1 
C484: x16+x31 <=1 
C485: x16+x32 <=1 
C486: x16+x34-y16_34 <=1 
C487: x16+x36 <=1 
C488: x16+x37-y16_37 <=1 
C489: x16+x39-y16_39 <=1 
C490: x16+x41-y16_41 <=1 
C491: x16+x43-y16_43 <=1 
C492: x16+x44 <=1 
C493: x16+x47 <=1 
C494: x16+x48-y16_48 <=1 
C495: x16+x50-y16_50 <=1 
C496: x16+x54-y16_54 <=1 
C497: x16+x55 <=1 
C498: x16+x56-y16_56 <=1 
C499: x16+x57 <=1 
C500: x16+x58 <=1 
C501: x16+x59 <=1 
C502: x17+x19 <=1 
C503: x17+x20-y17_20 <=1 
C504: x17+x21 <=1 
C505: x17+x22 <=1 
C506: x17+x24-y17_24 <=1 
C507: x17+x25-y17_25 <=1 
C508: x17+x26 <=1 
C509: x17+x27-y17_27 <=1 
C510: x17+x30-y17_30 <=1 
C511: x17+x31-y17_31 <=1 
C512: x17+x32 <=1 
C513: x17+x33-y17_33 <=1 
C514: x17+x35 <=1 
C515: x17+x36 <=1 
C516: x17+x37 <=1 
C517: x17+x38 <=1 
C518: x17+x39 <=1 
C519: x17+x40-y17_40 <=1 
C520: x17+x41-y17_41 <=1 
C521: x17+x42 <=1 
C522: x17+x43 <=1 
C523: x17+x45-y17_45 <=1 
C524: x17+x46 <=1 
C525: x17+x47 <=1 
C526: x17+x48 <=1 
C527: x17+x49 <=1 
C528: x17+x50 <=1 
C529: x17+x52 <=1 
C530: x17+x53-y17_53 <=1 
C531: x17+x54 <=1 
C532: x17+x55-y17_55 <=1 
C533: x17+x57 <=1 
C534: x18+x21 <=1 
C535: x18+x22-y18_22 <=1 
C536: x18+x24-y18_24 <=1 
C537: x18+x25 <=1 
C538: x18+x26-y18_26 <=1 
C539: x18+x27-y18_27 <=1 
C540: x18+x28 <=1 
C541: x18+x29-y18_29 <=1 
C542: x18+x30-y18_30 <=1 
C543: x18+x32-y18_32 <=1 
C544: x18+x34-y18_34 <=1 
C545: x18+x38 <=1 
C546: x18+x39-y18_39 <=1 
C547: x18+x41 <=1 
C548: x18+x42-y18_42 <=1 
C549: x18+x43 <=1 
C550: x18+x46-y18_46 <=1 
C551: x18+x48-y18_48 <=1 
C552: x18+x49-y18_49 <=1 
C553: x18+x52-y18_52 <=1 
C554: x18+x55-y18_55 <=1 
C555: x18+x56 <=1 
C556: x18+x57-y18_57 <=1 
C557: x18+x58-y18_58 <=1 
C558: x18+x59 <=1 
C559: x19+x20 <=1 
C560: x19+x21 <=1 
C561: x19+x22-y19_22 <=1 
C562: x19+x24 <=1 
C563: x19+x25 <=1 
C564: x19+x26-y19_26 <=1 
C565: x19+x27 <=1 
C566: x19+x28 <=1 
C567: x19+x30-y19_30 <=1 
C568: x19+x31-y19_31 <=1 
C569: x19+x32-y19_32 <=1 
C570: x19+x33-y19_33 <=1 
C571: x19+x34-y19_34 <=1 
C572: x19+x37-y19_37 <=1 
C573: x19+x38 <=1 
C574: x19+x41 <=1 
C575: x19+x42 <=1 
C576: x19+x43 <=1 
C577: x19+x44 <=1 
C578: x19+x47 <=1 
C579: x19+x49-y19_49 <=1 
C580: x19+x50-y19_50 <=1 
C581: x19+x51 <=1 
C582: x19+x52 <=1 
C583: x19+x53-y19_53 <=1 
C584: x19+x54-y19_54 <=1 
C585: x19+x55-y19_55 <=1 
C586: x20+x21-y20_21 <=1 
C587: x20+x23-y20_23 <=1 
C588: x20+x24 <=1 
C589: x20+x26-y20_26 <=1 
C590: x20+x27-y20_27 <=1 
C591: x20+x28 <=1 
C592: x20+x30-y20_30 <=1 
C593: x20+x32 <=1 
C594: x20+x34 <=1 
C595: x20+x35-y20_35 <=1 
C596: x20+x38 <=1 
C597: x20+x42-y20_42 <=1 
C598: x20+x43 <=1 
C599: x20+x46 <=1 
C600: x20+x47 <=1 
C601: x20+x48 <=1 
C602: x20+x49 <=1 
C603: x20+x53 <=1 
C604: x20+x55-y20_55 <=1 
C605: x20+x58 <=1 
C606: x20+x59 <=1 
C607: x21+x22-y21_22 <=1 
C608: x21+x23-y21_23 <=1 
C609: x21+x25 <=1 
C610: x21+x27-y21_27 <=1 
C611: x21+x28 <=1 
C612: x21+x29-y21_29 <=1 
C613: x21+x31-y21_31 <=1 
C614: x21+x32 <=1 
C615: x21+x34-y21_34 <=1 
C616: x21+x37-y21_37 <=1 
C617: x21+x38-y21_38 <=1 
C618: x21+x40 <=1 
C619: x21+x41-y21_41 <=1 
C620: x21+x44 <=1 
C621: x21+x46 <=1 
C622: x21+x50 <=1 
C623: x21+x51 <=1 
C624: x21+x53-y21_53 <=1 
C625: x21+x54 <=1 
C626: x21+x58-y21_58 <=1 
C627: x21+x59 <=1 
C628: x22+x24 <=1 
C629: x22+x28-y22_28 <=1 
C630: x22+x29 <=1 
C631: x22+x30-y22_30 <=1 
C632: x22+x31 <=1 
C633: x22+x33 <=1 
C634: x22+x34 <=1 
C635: x22+x35-y22_35 <=1 
C636: x22+x36 <=1 
C637: x22+x37 <=1 
C638: x22+x38 <=1 
C639: x22+x41-y22_41 <=1 
C640: x22+x42-y22_42 <=1 
C641: x22+x43 <=1 
C642: x22+x44-y22_44 <=1 
C643: x22+x46 <=1 
C644: x22+x47 <=1 
C645: x22+x48 <=1 
C646: x22+x49 <=1 
C647: x22+x50 <=1 
C648: x22+x52-y22_52 <=1 
C649: x22+x54-y22_54 <=1 
C650: x22+x57 <=1 
C651: x22+x59 <=1 
C652: x23+x24-y23_24 <=1 
C653: x23+x25 <=1 
C654: x23+x26-y23_26 <=1 
C655: x23+x27-y23_27 <=1 
C656: x23+x29-y23_29 <=1 
C657: x23+x30-y23_30 <=1 
C658: x23+x33-y23_33 <=1 
C659: x23+x34 <=1 
C660: x23+x35-y23_35 <=1 
C661: x23+x37 <=1 
C662: x23+x39 <=1 
C663: x23+x41-y23_41 <=1 
C664: x23+x46-y23_46 <=1 
C665: x23+x47 <=1 
C666: x23+x48 <=1 
C667: x23+x50 <=1 
C668: x23+x52-y23_52 <=1 
C669: x23+x54-y23_54 <=1 
C670: x23+x55-y23_55 <=1 
C671: x23+x56-y23_56 <=1 
C672: x23+x58 <=1 
C673: x24+x25 <=1 
C674: x24+x28-y24_28 <=1 
C675: x24+x30 <=1 
C676: x24+x32-y24_32 <=1 
C677: x24+x33 <=1 
C678: x24+x34-y24_34 <=1 
C679: x24+x37 <=1 
C680: x24+x38 <=1 
C681: x24+x39-y24_39 <=1 
C682: x24+x45 <=1 
C683: x24+x47 <=1 
C684: x24+x48 <=1 
C685: x24+x51-y24_51 <=1 
C686: x24+x52 <=1 
C687: x24+x53-y24_53 <=1 
C688: x24+x54-y24_54 <=1 
C689: x24+x55 <=1 
C690: x24+x56-y24_56 <=1 
C691: x24+x57-y24_57 <=1 
C692: x24+x58 <=1 
C693: x24+x59 <=1 
C694: x25+x26-y25_26 <=1 
C695: x25+x27-y25_27 <=1 
C696: x25+x28-y25_28 <=1 
C697: x25+x29-y25_29 <=1 
C698: x25+x30-y25_30 <=1 
C699: x25+x31-y25_31 <=1 
C700: x25+x35-y25_35 <=1 
C701: x25+x36 <=1 
C702: x25+x37-y25_37 <=1 
C703: x25+x38 <=1 
C704: x25+x39-y25_39 <=1 
C705: x25+x42 <=1 
C706: x25+x43 <=1 
C707: x25+x44 <=1 
C708: x25+x47-y25_47 <=1 
C709: x25+x48 <=1 
C710: x25+x49-y25_49 <=1 
C711: x25+x52 <=1 
C712: x25+x54-y25_54 <=1 
C713: x25+x57 <=1 
C714: x25+x59 <=1 
C715: x26+x28 <=1 
C716: x26+x29 <=1 
C717: x26+x30-y26_30 <=1 
C718: x26+x35-y26_35 <=1 
C719: x26+x37-y26_37 <=1 
C720: x26+x38 <=1 
C721: x26+x40-y26_40 <=1 
C722: x26+x41-y26_41 <=1 
C723: x26+x42-y26_42 <=1 
C724: x26+x43-y26_43 <=1 
C725: x26+x45 <=1 
C726: x26+x50-y26_50 <=1 
C727: x26+x52 <=1 
C728: x26+x53-y26_53 <=1 
C729: x26+x54-y26_54 <=1 
C730: x26+x57-y26_57 <=1 
C731: x27+x28 <=1 
C732: x27+x29-y27_29 <=1 
C733: x27+x30 <=1 
C734: x27+x32 <=1 
C735: x27+x33 <=1 
C736: x27+x34-y27_34 <=1 
C737: x27+x35 <=1 
C738: x27+x36-y27_36 <=1 
C739: x27+x37 <=1 
C740: x27+x38 <=1 
C741: x27+x39-y27_39 <=1 
C742: x27+x40 <=1 
C743: x27+x44-y27_44 <=1 
C744: x27+x46 <=1 
C745: x27+x47 <=1 
C746: x27+x50 <=1 
C747: x27+x51 <=1 
C748: x27+x52 <=1 
C749: x27+x53 <=1 
C750: x27+x55 <=1 
C751: x27+x56-y27_56 <=1 
C752: x27+x58 <=1 
C753: x28+x34 <=1 
C754: x28+x35 <=1 
C755: x28+x36 <=1 
C756: x28+x38-y28_38 <=1 
C757: x28+x39-y28_39 <=1 
C758: x28+x41-y28_41 <=1 
C759: x28+x43 <=1 
C760: x28+x45-y28_45 <=1 
C761: x28+x46 <=1 
C762: x28+x47 <=1 
C763: x28+x52-y28_52 <=1 
C764: x28+x54 <=1 
C765: x28+x55-y28_55 <=1 
C766: x28+x57 <=1 
C767: x28+x58-y28_58 <=1 
C768: x29+x31 <=1 
C769: x29+x34-y29_34 <=1 
C770: x29+x35 <=1 
C771: x29+x36 <=1 
C772: x29+x38 <=1 
C773: x29+x39 <=1 
C774: x29+x40-y29_40 <=1 
C775: x29+x41-y29_41 <=1 
C776: x29+x43 <=1 
C777: x29+x44-y29_44 <=1 
C778: x29+x45 <=1 
C779: x29+x46-y29_46 <=1 
C780: x29+x47 <=1 
C781: x29+x50 <=1 
C782: x29+x52 <=1 
C783: x29+x53 <=1 
C784: x29+x56 <=1 
C785: x29+x58-y29_58 <=1 
C786: x29+x59 <=1 
C787: x30+x31 <=1 
C788: x30+x32-y30_32 <=1 
C789: x30+x33-y30_33 <=1 
C790: x30+x35-y30_35 <=1 
C791: x30+x37 <=1 
C792: x30+x38-y30_38 <=1 
C793: x30+x39-y30_39 <=1 
C794: x30+x40 <=1 
C795: x30+x42 <=1 
C796: x30+x43-y30_43 <=1 
C797: x30+x45-y30_45 <=1 
C798: x30+x46-y30_46 <=1 
C799: x30+x48 <=1 
C800: x30+x49 <=1 
C801: x30+x50 <=1 
C802: x30+x51 <=1 
C803: x30+x52-y30_52 <=1 
C804: x30+x55 <=1 
C805: x30+x56-y30_56 <=1 
C806: x30+x58 <=1 
C807: x30+x59 <=1 
C808: x31+x37-y31_37 <=1 
C809: x31+x40 <=1 
C810: x31+x41 <=1 
C811: x31+x43-y31_43 <=1 
C812: x31+x45 <=1 
C813: x31+x47-y31_47 <=1 
C814: x31+x48-y31_48 <=1 
C815: x31+x49 <=1 
C816: x31+x51-y31_51 <=1 
C817: x31+x58 <=1 
C818: x31+x59 <=1 
C819: x32+x34 <=1 
C820: x32+x35 <=1 
C821: x32+x39 <=1 
C822: x32+x41-y32_41 <=1 
C823: x32+x42 <=1 
C824: x32+x44 <=1 
C825: x32+x45-y32_45 <=1 
C826: x32+x46-y32_46 <=1 
C827: x32+x47-y32_47 <=1 
C828: x32+x48-y32_48 <=1 
C829: x32+x49 <=1 
C830: x32+x50 <=1 
C831: x32+x51-y32_51 <=1 
C832: x32+x52-y32_52 <=1 
C833: x32+x53 <=1 
C834: x32+x55-y32_55 <=1 
C835: x32+x56-y32_56 <=1 
C836: x32+x57-y32_57 <=1 
C837: x32+x59 <=1 
C838: x33+x34 <=1 
C839: x33+x35-y33_35 <=1 
C840: x33+x37-y33_37 <=1 
C841: x33+x38 <=1 
C842: x33+x39 <=1 
C843: x33+x40-y33_40 <=1 
C844: x33+x41-y33_41 <=1 
C845: x33+x43 <=1 
C846: x33+x45-y33_45 <=1 
C847: x33+x46 <=1 
C848: x33+x48 <=1 
C849: x33+x49 <=1 
C850: x33+x52-y33_52 <=1 
C851: x33+x53-y33_53 <=1 
C852: x33+x55 <=1 
C853: x33+x56 <=1 
C854: x33+x59 <=1 
C855: x34+x35-y34_35 <=1 
C856: x34+x37 <=1 
C857: x34+x39 <=1 
C858: x34+x42 <=1 
C859: x34+x43 <=1 
C860: x34+x45 <=1 
C861: x34+x46 <=1 
C862: x34+x47 <=1 
C863: x34+x48 <=1 
C864: x34+x52 <=1 
C865: x34+x53-y34_53 <=1 
C866: x34+x55 <=1 
C867: x34+x57-y34_57 <=1 
C868: x34+x58 <=1 
C869: x34+x59-y34_59 <=1 
C870: x35+x36-y35_36 <=1 
C871: x35+x37 <=1 
C872: x35+x42 <=1 
C873: x35+x43 <=1 
C874: x35+x46 <=1 
C875: x35+x49-y35_49 <=1 
C876: x35+x50-y35_50 <=1 
C877: x35+x51 <=1 
C878: x35+x52-y35_52 <=1 
C879: x35+x53-y35_53 <=1 
C880: x35+x54-y35_54 <=1 
C881: x35+x55 <=1 
C882: x35+x58 <=1 
C883: x36+x37 <=1 
C884: x36+x38 <=1 
C885: x36+x39-y36_39 <=1 
C886: x36+x40-y36_40 <=1 
C887: x36+x42-y36_42 <=1 
C888: x36+x44 <=1 
C889: x36+x47 <=1 
C890: x36+x48 <=1 
C891: x36+x51-y36_51 <=1 
C892: x36+x55 <=1 
C893: x36+x57 <=1 
C894: x37+x38 <=1 
C895: x37+x39 <=1 
C896: x37+x40-y37_40 <=1 
C897: x37+x42 <=1 
C898: x37+x45 <=1 
C899: x37+x46-y37_46 <=1 
C900: x37+x48-y37_48 <=1 
C901: x37+x50-y37_50 <=1 
C902: x37+x51 <=1 
C903: x37+x54-y37_54 <=1 
C904: x37+x55 <=1 
C905: x37+x56-y37_56 <=1 
C906: x37+x58-y37_58 <=1 
C907: x37+x59-y37_59 <=1 
C908: x38+x39-y38_39 <=1 
C909: x38+x41-y38_41 <=1 
C910: x38+x44-y38_44 <=1 
C911: x38+x46-y38_46 <=1 
C912: x38+x47 <=1 
C913: x38+x49-y38_49 <=1 
C914: x38+x53-y38_53 <=1 
C915: x38+x54 <=1 
C916: x38+x55 <=1 
C917: x39+x41 <=1 
C918: x39+x42-y39_42 <=1 
C919: x39+x44-y39_44 <=1 
C920: x39+x45-y39_45 <=1 
C921: x39+x46-y39_46 <=1 
C922: x39+x47-y39_47 <=1 
C923: x39+x48 <=1 
C924: x39+x50-y39_50 <=1 
C925: x39+x54-y39_54 <=1 
C926: x39+x55-y39_55 <=1 
C927: x39+x56-y39_56 <=1 
C928: x39+x57 <=1 
C929: x39+x58 <=1 
C930: x39+x59-y39_59 <=1 
C931: x40+x41 <=1 
C932: x40+x43 <=1 
C933: x40+x46 <=1 
C934: x40+x47 <=1 
C935: x40+x48 <=1 
C936: x40+x50 <=1 
C937: x40+x51-y40_51 <=1 
C938: x40+x52-y40_52 <=1 
C939: x40+x53 <=1 
C940: x40+x54-y40_54 <=1 
C941: x40+x55 <=1 
C942: x40+x56-y40_56 <=1 
C943: x40+x57 <=1 
C944: x40+x58-y40_58 <=1 
C945: x41+x43 <=1 
C946: x41+x46-y41_46 <=1 
C947: x41+x48-y41_48 <=1 
C948: x41+x49-y41_49 <=1 
C949: x41+x53 <=1 
C950: x41+x54 <=1 
C951: x41+x55-y41_55 <=1 
C952: x41+x56 <=1 
C953: x41+x58-y41_58 <=1 
C954: x41+x59 <=1 
C955: x42+x45 <=1 
C956: x42+x46-y42_46 <=1 
C957: x42+x48 <=1 
C958: x42+x49 <=1 
C959: x42+x50-y42_50 <=1 
C960: x42+x52-y42_52 <=1 
C961: x42+x54 <=1 
C962: x42+x55-y42_55 <=1 
C963: x42+x58 <=1 
C964: x43+x44-y43_44 <=1 
C965: x43+x45 <=1 
C966: x43+x46-y43_46 <=1 
C967: x43+x47-y43_47 <=1 
C968: x43+x48-y43_48 <=1 
C969: x43+x49 <=1 
C970: x43+x50 <=1 
C971: x43+x52-y43_52 <=1 
C972: x43+x53 <=1 
C973: x43+x55 <=1 
C974: x43+x57 <=1 
C975: x43+x59 <=1 
C976: x44+x45-y44_45 <=1 
C977: x44+x46 <=1 
C978: x44+x47-y44_47 <=1 
C979: x44+x48-y44_48 <=1 
C980: x44+x49 <=1 
C981: x44+x50-y44_50 <=1 
C982: x44+x52 <=1 
C983: x44+x53-y44_53 <=1 
C984: x44+x54-y44_54 <=1 
C985: x44+x56-y44_56 <=1 
C986: x44+x58-y44_58 <=1 
C987: x45+x46 <=1 
C988: x45+x47 <=1 
C989: x45+x48 <=1 
C990: x45+x49 <=1 
C991: x45+x52 <=1 
C992: x45+x53 <=1 
C993: x45+x57-y45_57 <=1 
C994: x45+x58 <=1 
C995: x45+x59-y45_59 <=1 
C996: x46+x47-y46_47 <=1 
C997: x46+x48 <=1 
C998: x46+x49-y46_49 <=1 
C999: x46+x51 <=1 
C1000: x46+x53 <=1 
C1001: x46+x55 <=1 
C1002: x46+x57 <=1 
C1003: x46+x58 <=1 
C1004: x46+x59 <=1 
C1005: x47+x49-y47_49 <=1 
C1006: x47+x50-y47_50 <=1 
C1007: x47+x55-y47_55 <=1 
C1008: x47+x56 <=1 
C1009: x47+x59 <=1 
C1010: x48+x50 <=1 
C1011: x48+x51 <=1 
C1012: x48+x53-y48_53 <=1 
C1013: x48+x55-y48_55 <=1 
C1014: x48+x58-y48_58 <=1 
C1015: x49+x50 <=1 
C1016: x49+x52-y49_52 <=1 
C1017: x49+x53-y49_53 <=1 
C1018: x49+x55 <=1 
C1019: x49+x56 <=1 
C1020: x49+x58-y49_58 <=1 
C1021: x50+x51 <=1 
C1022: x50+x52-y50_52 <=1 
C1023: x50+x55 <=1 
C1024: x50+x59-y50_59 <=1 
C1025: x51+x56-y51_56 <=1 
C1026: x51+x57 <=1 
C1027: x51+x58-y51_58 <=1 
C1028: x52+x53-y52_53 <=1 
C1029: x52+x54-y52_54 <=1 
C1030: x52+x56 <=1 
C1031: x52+x57 <=1 
C1032: x52+x58 <=1 
C1033: x52+x59-y52_59 <=1 
C1034: x53+x55 <=1 
C1035: x53+x57 <=1 
C1036: x53+x58 <=1 
C1037: x53+x59-y53_59 <=1 
C1038: x54+x55-y54_55 <=1 
C1039: x54+x56-y54_56 <=1 
C1040: x54+x58-y54_58 <=1 
C1041: x55+x56-y55_56 <=1 
C1042: x56+x58-y56_58 <=1 
C1043: x57+x58 <=1 
C1044: x57+x59-y57_59 <=1 
C1045: x58+x59 <=1 

binary
x0
x1
x2
x3
x4
x5
x6
x7
x8
x9
x10
x11
x12
x13
x14
x15
x16
x17
x18
x19
x20
x21
x22
x23
x24
x25
x26
x27
x28
x29
x30
x31
x32
x33
x34
x35
x36
x37
x38
x39
x40
x41
x42
x43
x44
x45
x46
x47
x48
x49
x50
x51
x52
x53
x54
x55
x56
x57
x58
x59
