problem_generation/data/GISP/train/er_n=60_m=1045_p=0.60_SET2_setparam=100.00_alpha=0.50_809.sol
objective value:                                 1177
x8                                                  1 	(obj:100)
x9                                                  1 	(obj:100)
x10                                                 1 	(obj:100)
x19                                                 1 	(obj:100)
x23                                                 1 	(obj:100)
x26                                                 1 	(obj:100)
x31                                                 1 	(obj:100)
x32                                                 1 	(obj:100)
x36                                                 1 	(obj:100)
x46                                                 1 	(obj:100)
x54                                                 1 	(obj:100)
x56                                                 1 	(obj:100)
y10_54                                              1 	(obj:-1)
y19_32                                              1 	(obj:-1)
y23_56                                              1 	(obj:-1)
y8_54                                               1 	(obj:-1)
y19_54                                              1 	(obj:-1)
y8_31                                               1 	(obj:-1)
y19_31                                              1 	(obj:-1)
y19_26                                              1 	(obj:-1)
y9_56                                               1 	(obj:-1)
y9_46                                               1 	(obj:-1)
y10_32                                              1 	(obj:-1)
y32_56                                              1 	(obj:-1)
y9_54                                               1 	(obj:-1)
y23_46                                              1 	(obj:-1)
y54_56                                              1 	(obj:-1)
y32_46                                              1 	(obj:-1)
y9_26                                               1 	(obj:-1)
y23_54                                              1 	(obj:-1)
y23_26                                              1 	(obj:-1)
y26_54                                              1 	(obj:-1)
y8_10                                               1 	(obj:-1)
y8_19                                               1 	(obj:-1)
y8_23                                               1 	(obj:-1)
